networks/zoo_28_109/zoo_28_109-lower.sol
<?xml version = "1.0" encoding="UTF-8" standalone="yes"?>
<CPLEXSolution version="1.2">
 <header
   problemName="networks/zoo_28_109/zoo_28_109-lower.lp"
   solutionName="incumbent"
   solutionIndex="-1"
   objectiveValue="14"
   solutionTypeValue="3"
   solutionTypeString="primal"
   solutionStatusValue="101"
   solutionStatusString="integer optimal solution"
   solutionMethodString="mip"
   primalFeasible="1"
   dualFeasible="1"
   MIPNodes="0"
   MIPIterations="170"
   writeLevel="3"/>
 <quality
   epInt="1.0000000000000001e-05"
   epRHS="9.9999999999999995e-07"
   maxIntInfeas="0"
   maxPrimalInfeas="0"
   maxX="1"
   maxSlack="1"/>
 <variables>
  <variable name="Y(5,6)" index="113" value="1"/>
  <variable name="Y(11,13)" index="282" value="1"/>
  <variable name="Y(13,3)" index="326" value="1"/>
  <variable name="Y(25,9)" index="656" value="1"/>
  <variable name="Y(32,7)" index="843" value="1"/>
  <variable name="Y(48,14)" index="1282" value="1"/>
  <variable name="Y(49,8)" index="1303" value="1"/>
  <variable name="Y(50,1)" index="1323" value="1"/>
  <variable name="Y(69,11)" index="1846" value="1"/>
  <variable name="Y(82,12)" index="2198" value="1"/>
  <variable name="Y(87,4)" index="2325" value="1"/>
  <variable name="Y(95,12)" index="2549" value="1"/>
  <variable name="Y(96,2)" index="2566" value="1"/>
  <variable name="Y(105,5)" index="2812" value="1"/>
  <variable name="X(1,7,5)" index="2947" value="1"/>
  <variable name="X(1,15,50)" index="3101" value="1"/>
  <variable name="X(2,7,13)" index="3173" value="1"/>
  <variable name="X(2,16,96)" index="3365" value="1"/>
  <variable name="X(3,7,25)" index="3403" value="1"/>
  <variable name="X(3,17,13)" index="3500" value="1"/>
  <variable name="X(4,7,32)" index="3628" value="1"/>
  <variable name="X(4,18,87)" index="3792" value="1"/>
  <variable name="X(5,8,48)" index="3862" value="1"/>
  <variable name="X(5,19,105)" index="4028" value="1"/>
  <variable name="X(6,7,49)" index="4081" value="1"/>
  <variable name="X(6,20,5)" index="4146" value="1"/>
  <variable name="X(7,1,50)" index="4300" value="1"/>
  <variable name="X(7,2,96)" index="4455" value="1"/>
  <variable name="X(7,3,13)" index="4481" value="1"/>
  <variable name="X(7,4,87)" index="4664" value="1"/>
  <variable name="X(7,6,5)" index="4691" value="1"/>
  <variable name="X(7,8,49)" index="4844" value="1"/>
  <variable name="X(7,9,25)" index="4929" value="1"/>
  <variable name="X(7,11,69)" index="5082" value="1"/>
  <variable name="X(7,12,82)" index="5204" value="1"/>
  <variable name="X(7,21,32)" index="5263" value="1"/>
  <variable name="X(8,5,105)" index="5445" value="1"/>
  <variable name="X(8,7,96)" index="5545" value="1"/>
  <variable name="X(8,13,11)" index="5569" value="1"/>
  <variable name="X(8,14,48)" index="5715" value="1"/>
  <variable name="X(8,22,49)" index="5825" value="1"/>
  <variable name="X(9,7,69)" index="5954" value="1"/>
  <variable name="X(9,23,25)" index="6019" value="1"/>
  <variable name="X(10,7,82)" index="6185" value="1"/>
  <variable name="X(11,7,87)" index="6299" value="1"/>
  <variable name="X(11,25,69)" index="6390" value="1"/>
  <variable name="X(12,7,95)" index="6525" value="1"/>
  <variable name="X(12,26,82)" index="6621" value="1"/>
  <variable name="X(13,8,96)" index="6744" value="1"/>
  <variable name="X(13,27,11)" index="6768" value="1"/>
  <variable name="X(14,8,105)" index="6971" value="1"/>
  <variable name="X(14,28,48)" index="7023" value="1"/>
 </variables>
</CPLEXSolution>
